decompositions/zmienne_worki/g_100_85_10.td
s td 61 4 100
b 1 40 67 82 
b 2 51 
b 3 12 
b 4 3 7 85 
b 5 71 
b 6 93 
b 7 28 29 62 
b 8 43 64 
b 9 38 49 
b 10 5 
b 11 15 
b 12 70 97 
b 13 9 45 
b 14 48 
b 15 37 72 
b 16 50 
b 17 2 73 
b 18 86 
b 19 21 
b 20 75 
b 21 92 
b 22 60 
b 23 11 
b 24 35 
b 25 94 
b 26 65 
b 27 63 
b 28 83 
b 29 98 
b 30 19 
b 31 27 
b 32 10 31 
b 33 42 
b 34 33 53 
b 35 1 66 87 
b 36 95 
b 37 25 36 
b 38 46 79 
b 39 13 
b 40 16 
b 41 26 
b 42 20 78 
b 43 80 
b 44 69 96 
b 45 18 76 84 
b 46 4 
b 47 22 23 74 89 
b 48 39 59 
b 49 47 
b 50 55 88 91 
b 51 30 58 81 
b 52 90 100 
b 53 44 99 
b 54 34 61 
b 55 17 54 56 
b 56 14 
b 57 32 57 68 
b 58 52 
b 59 8 
b 60 41 
b 61 6 24 77 
1 2
1 3
2 4
3 5
4 6
5 7
6 8
7 9
8 10
10 11
11 12
12 13
13 14
14 15
15 16
16 17
17 18
18 19
19 20
20 21
21 22
22 23
23 24
24 25
25 26
26 27
27 28
28 29
29 30
30 31
31 32
32 33
33 34
34 35
35 36
36 37
37 38
38 39
39 40
40 41
41 42
42 43
43 44
44 45
45 46
46 47
47 48
48 49
49 50
50 51
51 52
52 53
53 54
54 55
55 56
56 57
57 58
58 59
59 60
60 61
