graphs/pace/raport/zmienne_worki/g_100_85_10.gr
p tw 100 52
1 66
1 87
66 87
3 7
3 85
7 85
44 99
10 31
25 36
33 53
32 57
32 68
57 68
17 54
17 56
54 56
38 49
43 64
40 67
40 82
67 82
6 24
6 77
24 77
28 29
28 62
29 62
30 58
30 81
58 81
70 97
18 76
18 84
76 84
39 59
46 79
20 78
34 61
22 23
22 74
22 89
23 74
23 89
74 89
69 96
90 100
9 45
55 88
55 91
88 91
37 72
2 73
